13
0 381 543 763 615 797 757 141 1161 712 896 982 560
381 0 168 599 682 456 526 283 851 432 531 619 452
543 168 0 539 723 299 434 430 699 319 420 451 445
763 599 539 0 406 420 142 626 527 259 884 589 204
615 682 723 406 0 756 518 525 933 587 1137 953 303
797 456 299 420 756 0 278 664 401 171 485 204 454
757 526 434 142 518 278 0 616 438 124 749 449 248
141 283 430 626 525 664 616 0 1021 572 814 855 425
1161 851 699 527 933 401 438 1021 0 449 788 341 686
712 432 319 259 587 171 124 572 449 0 625 365 289
896 531 420 884 1137 485 749 814 788 625 0 446 845
982 619 451 589 953 204 449 855 341 365 446 0 654
560 452 445 204 303 454 248 425 686 289 845 654 0
